
Gurobi 9.5.0 (win64) logging started Thu May 12 18:13:30 2022

Set parameter LogFile to value "../results/logs/log_facebook_combined_17_250_2022_05_12_18_13.log"
Set parameter LazyConstraints to value 1

Gurobi 9.5.0 (win64) logging started Thu May 12 18:13:54 2022

Set parameter LogFile to value "../results/logs/log_facebook_combined_17_250_2022_05_12_18_13.log"
Gurobi Optimizer version 9.5.0 build v9.5.0rc5 (win64)
Thread count: 6 physical cores, 12 logical processors, using up to 12 threads
Optimize a model with 1003 rows, 8078 columns and 27347 nonzeros
Model fingerprint: 0xfeab5514
Variable types: 0 continuous, 8078 integer (8078 binary)
Coefficient statistics:
  Matrix range     [1e+00, 2e+01]
  Objective range  [1e+00, 1e+00]
  Bounds range     [1e+00, 1e+00]
  RHS range        [1e+00, 3e+02]
Found heuristic solution: objective 2061.0000000
Presolve removed 33 rows and 6571 columns
Presolve time: 0.04s
Presolved: 970 rows, 1507 columns, 17213 nonzeros
Variable types: 0 continuous, 1507 integer (1423 binary)
Found heuristic solution: objective 2111.0000000

Root relaxation: objective 2.547778e+03, 824 iterations, 0.01 seconds (0.01 work units)

    Nodes    |    Current Node    |     Objective Bounds      |     Work
 Expl Unexpl |  Obj  Depth IntInf | Incumbent    BestBd   Gap | It/Node Time

     0     0 2547.77825    0  108 2111.00000 2547.77825  20.7%     -    0s
H    0     0                    2481.0000000 2547.77825  2.69%     -    0s
H    0     0                    2487.0000000 2547.77825  2.44%     -    0s
H    0     0                    2492.0000000 2547.77825  2.24%     -    0s
H    0     0                    2519.0000000 2547.77825  1.14%     -    0s
     0     0 2542.21384    0  171 2519.00000 2542.21384  0.92%     -    0s
H    0     0                    2520.0000000 2542.21384  0.88%     -    0s
H    0     0                    2527.0000000 2542.21384  0.60%     -    0s
     0     0 2540.90833    0  165 2527.00000 2540.90833  0.55%     -    0s
     0     0 2540.87657    0  164 2527.00000 2540.87657  0.55%     -    0s
H    0     0                    2528.0000000 2537.61155  0.38%     -    0s
     0     0 2537.61155    0  169 2528.00000 2537.61155  0.38%     -    0s
     0     0 2536.95695    0  175 2528.00000 2536.95695  0.35%     -    0s
     0     0 2536.75954    0  171 2528.00000 2536.75954  0.35%     -    0s
     0     0 2536.72701    0  137 2528.00000 2536.72701  0.35%     -    0s
     0     0 2536.72688    0  139 2528.00000 2536.72688  0.35%     -    0s
H    0     0                    2529.0000000 2536.72688  0.31%     -    0s
H    0     0                    2533.0000000 2536.72688  0.15%     -    0s
     0     0 2535.43192    0   89 2533.00000 2535.43192  0.10%     -    0s
     0     0 2535.02100    0   67 2533.00000 2535.02100  0.08%     -    0s
     0     0 2534.72851    0   67 2533.00000 2534.72851  0.07%     -    0s
     0     0 2534.69459    0   59 2533.00000 2534.69459  0.07%     -    0s
     0     0 2534.68347    0   64 2533.00000 2534.68347  0.07%     -    0s
     0     0 2534.68225    0   77 2533.00000 2534.68225  0.07%     -    0s
     0     0 2534.40802    0   61 2533.00000 2534.40802  0.06%     -    0s
     0     0 2534.40802    0   39 2533.00000 2534.40802  0.06%     -    0s
     0     0 2534.40802    0   54 2533.00000 2534.40802  0.06%     -    0s
     0     0 2534.40802    0   61 2533.00000 2534.40802  0.06%     -    0s
     0     0 2534.40802    0   59 2533.00000 2534.40802  0.06%     -    0s
     0     0 2534.40802    0   52 2533.00000 2534.40802  0.06%     -    0s
     0     0 2534.40802    0   51 2533.00000 2534.40802  0.06%     -    0s
     0     0 2534.40802    0   50 2533.00000 2534.40802  0.06%     -    0s
     0     0 2534.40802    0   39 2533.00000 2534.40802  0.06%     -    0s
     0     0 2534.35747    0   32 2533.00000 2534.35747  0.05%     -    0s
     0     0 2534.32529    0   31 2533.00000 2534.32529  0.05%     -    0s
     0     0     cutoff    0      2533.00000 2533.00000  0.00%     -    0s

Cutting planes:
  Gomory: 17
  Lift-and-project: 2
  Cover: 4
  Implied bound: 7
  MIR: 28
  StrongCG: 2
  GUB cover: 19
  Zero half: 2
  RLT: 10
  Relax-and-lift: 1

Explored 1 nodes (2827 simplex iterations) in 0.70 seconds (0.34 work units)
Thread count was 12 (of 12 available processors)

Solution count 10: 2533 2532 2529 ... 2492

Optimal solution found (tolerance 0.00e+00)
Best objective 2.533000000000e+03, best bound 2.533000000000e+03, gap 0.0000%
